p cnf 429 1440
1 0
2 0
3 0
4 0
5 0
6 0
7 0
8 0
9 0
10 0
-11 0
-12 0
-13 0
-14 0
-15 0
-16 0
-17 0
-18 0
-19 0
-20 0
-1 21 -22 0
1 -21 -22 0
-1 -21 22 0
1 21 22 0
-23 -22 0
1 -21 -24 0
-1 21 -24 0
24 -1 -21 0
24 1 21 0
-25 24 0
-26 24 0
-27 24 0
-2 28 -29 0
2 -28 -29 0
-2 -28 29 0
2 28 29 0
-23 -29 0
2 -28 -30 0
-2 28 -30 0
30 -2 -28 0
30 2 28 0
-25 30 0
-26 30 0
-27 30 0
-3 31 -32 0
3 -31 -32 0
-3 -31 32 0
3 31 32 0
-23 -32 0
3 -31 -33 0
-3 31 -33 0
33 -3 -31 0
33 3 31 0
-25 33 0
-26 33 0
-27 33 0
-4 34 -35 0
4 -34 -35 0
-4 -34 35 0
4 34 35 0
-23 -35 0
4 -34 -36 0
-4 34 -36 0
36 -4 -34 0
36 4 34 0
-25 36 0
-26 36 0
-27 36 0
-5 37 -38 0
5 -37 -38 0
-5 -37 38 0
5 37 38 0
-23 -38 0
5 -37 -39 0
-5 37 -39 0
39 -5 -37 0
39 5 37 0
-25 39 0
-26 39 0
-27 39 0
-6 40 -41 0
6 -40 -41 0
-6 -40 41 0
6 40 41 0
-23 -41 0
6 -40 -42 0
-6 40 -42 0
42 -6 -40 0
42 6 40 0
-25 42 0
-26 42 0
-27 42 0
43 -7 -44 0
7 -43 -44 0
-43 -7 44 0
7 43 44 0
-23 -44 0
7 -43 -45 0
43 -7 -45 0
45 -7 -43 0
45 7 43 0
-25 45 0
-26 45 0
-27 45 0
46 -8 -47 0
8 -46 -47 0
-46 -8 47 0
8 46 47 0
-23 -47 0
8 -46 -48 0
46 -8 -48 0
48 -8 -46 0
48 8 46 0
-25 48 0
-26 48 0
-27 48 0
49 -9 -50 0
9 -49 -50 0
-49 -9 50 0
9 49 50 0
-23 -50 0
9 -49 -51 0
49 -9 -51 0
51 -9 -49 0
51 9 49 0
-25 51 0
-26 51 0
-27 51 0
52 -10 -53 0
10 -52 -53 0
-52 -10 53 0
10 52 53 0
-23 -53 0
10 -52 -54 0
52 -10 -54 0
54 -10 -52 0
54 10 52 0
-25 54 0
-26 54 0
-27 54 0
-11 55 -56 0
11 -55 -56 0
-11 -55 56 0
11 55 56 0
-23 -56 0
11 -57 -58 0
-11 57 -58 0
58 -11 -57 0
58 11 57 0
-25 58 0
-59 60 0
-55 60 0
59 55 -60 0
11 -60 -61 0
-11 60 -61 0
-11 -60 61 0
11 60 61 0
-26 61 0
55 62 0
59 62 0
-55 -59 -62 0
-11 62 -63 0
11 -62 -63 0
63 -62 -11 0
11 62 63 0
-27 -63 0
-59 57 -64 0
59 -57 -64 0
-59 -57 64 0
59 57 64 0
-23 -64 0
59 -65 -66 0
-59 65 -66 0
66 -59 -65 0
66 59 65 0
-25 66 0
-67 68 0
-57 68 0
67 57 -68 0
59 -68 -69 0
-59 68 -69 0
-59 -68 69 0
59 68 69 0
-26 69 0
67 70 0
57 70 0
-67 -57 -70 0
-59 70 -71 0
59 -70 -71 0
71 -70 -59 0
59 70 71 0
-27 -71 0
-67 65 -72 0
67 -65 -72 0
-67 -65 72 0
67 65 72 0
-23 -72 0
67 -65 -73 0
-67 65 -73 0
73 -67 -65 0
73 67 65 0
-25 73 0
-26 73 0
-27 73 0
-12 74 -75 0
12 -74 -75 0
-12 -74 75 0
12 74 75 0
-23 -75 0
12 -76 -77 0
-12 76 -77 0
77 -12 -76 0
77 12 76 0
-25 77 0
-78 79 0
-74 79 0
78 74 -79 0
12 -79 -80 0
-12 79 -80 0
-12 -79 80 0
12 79 80 0
-26 80 0
78 81 0
74 81 0
-78 -74 -81 0
-12 81 -82 0
12 -81 -82 0
82 -81 -12 0
12 81 82 0
-27 -82 0
-78 76 -83 0
78 -76 -83 0
-78 -76 83 0
78 76 83 0
-23 -83 0
78 -84 -85 0
-78 84 -85 0
85 -78 -84 0
85 78 84 0
-25 85 0
-86 87 0
-76 87 0
86 76 -87 0
78 -87 -88 0
-78 87 -88 0
-78 -87 88 0
78 87 88 0
-26 88 0
86 89 0
76 89 0
-86 -76 -89 0
-78 89 -90 0
78 -89 -90 0
90 -89 -78 0
78 89 90 0
-27 -90 0
-86 84 -91 0
86 -84 -91 0
-86 -84 91 0
86 84 91 0
-23 -91 0
86 -74 -92 0
-86 74 -92 0
92 -86 -74 0
92 86 74 0
-25 92 0
-74 93 0
-76 93 0
-84 93 0
74 76 84 -93 0
86 -93 -94 0
-86 93 -94 0
-86 -93 94 0
86 93 94 0
-26 94 0
74 95 0
76 95 0
84 95 0
-74 -76 -84 -95 0
-86 95 -96 0
86 -95 -96 0
96 -95 -86 0
86 95 96 0
-27 -96 0
-13 97 -98 0
13 -97 -98 0
-13 -97 98 0
13 97 98 0
-23 -98 0
13 -99 -100 0
-13 99 -100 0
100 -13 -99 0
100 13 99 0
-25 100 0
-101 102 0
-97 102 0
101 97 -102 0
13 -102 -103 0
-13 102 -103 0
-13 -102 103 0
13 102 103 0
-26 103 0
101 104 0
97 104 0
-101 -97 -104 0
-13 104 -105 0
13 -104 -105 0
105 -104 -13 0
13 104 105 0
-27 -105 0
-101 99 -106 0
101 -99 -106 0
-101 -99 106 0
101 99 106 0
-23 -106 0
101 -107 -108 0
-101 107 -108 0
108 -101 -107 0
108 101 107 0
-25 108 0
-109 110 0
-99 110 0
109 99 -110 0
101 -110 -111 0
-101 110 -111 0
-101 -110 111 0
101 110 111 0
-26 111 0
109 112 0
99 112 0
-109 -99 -112 0
-101 112 -113 0
101 -112 -113 0
113 -112 -101 0
101 112 113 0
-27 -113 0
-109 107 -114 0
109 -107 -114 0
-109 -107 114 0
109 107 114 0
-23 -114 0
109 -115 -116 0
-109 115 -116 0
116 -109 -115 0
116 109 115 0
-25 116 0
-117 118 0
-107 118 0
117 107 -118 0
109 -118 -119 0
-109 118 -119 0
-109 -118 119 0
109 118 119 0
-26 119 0
117 120 0
107 120 0
-117 -107 -120 0
-109 120 -121 0
109 -120 -121 0
121 -120 -109 0
109 120 121 0
-27 -121 0
-117 115 -122 0
117 -115 -122 0
-117 -115 122 0
117 115 122 0
-23 -122 0
117 -99 -123 0
-117 99 -123 0
123 -117 -99 0
123 117 99 0
-25 123 0
-99 124 0
-107 124 0
-115 124 0
99 107 115 -124 0
117 -124 -125 0
-117 124 -125 0
-117 -124 125 0
117 124 125 0
-26 125 0
99 126 0
107 126 0
115 126 0
-99 -107 -115 -126 0
-117 126 -127 0
117 -126 -127 0
127 -126 -117 0
117 126 127 0
-27 -127 0
-14 128 -129 0
14 -128 -129 0
-14 -128 129 0
14 128 129 0
-23 -129 0
14 -130 -131 0
-14 130 -131 0
131 -14 -130 0
131 14 130 0
-25 131 0
-132 133 0
-128 133 0
132 128 -133 0
14 -133 -134 0
-14 133 -134 0
-14 -133 134 0
14 133 134 0
-26 134 0
132 135 0
128 135 0
-132 -128 -135 0
-14 135 -136 0
14 -135 -136 0
136 -135 -14 0
14 135 136 0
-27 -136 0
-132 130 -137 0
132 -130 -137 0
-132 -130 137 0
132 130 137 0
-23 -137 0
132 -138 -139 0
-132 138 -139 0
139 -132 -138 0
139 132 138 0
-25 139 0
-140 141 0
-130 141 0
140 130 -141 0
132 -141 -142 0
-132 141 -142 0
-132 -141 142 0
132 141 142 0
-26 142 0
140 143 0
130 143 0
-140 -130 -143 0
-132 143 -144 0
132 -143 -144 0
144 -143 -132 0
132 143 144 0
-27 -144 0
-140 138 -145 0
140 -138 -145 0
-140 -138 145 0
140 138 145 0
-23 -145 0
140 -146 -147 0
-140 146 -147 0
147 -140 -146 0
147 140 146 0
-25 147 0
-148 149 0
-138 149 0
148 138 -149 0
140 -149 -150 0
-140 149 -150 0
-140 -149 150 0
140 149 150 0
-26 150 0
148 151 0
138 151 0
-148 -138 -151 0
-140 151 -152 0
140 -151 -152 0
152 -151 -140 0
140 151 152 0
-27 -152 0
-148 146 -153 0
148 -146 -153 0
-148 -146 153 0
148 146 153 0
-23 -153 0
148 -138 -154 0
-148 138 -154 0
154 -148 -138 0
154 148 138 0
-25 154 0
-138 155 0
-146 155 0
138 146 -155 0
148 -155 -156 0
-148 155 -156 0
-148 -155 156 0
148 155 156 0
-26 156 0
138 157 0
146 157 0
-138 -146 -157 0
-148 157 -158 0
148 -157 -158 0
158 -157 -148 0
148 157 158 0
-27 -158 0
-15 159 -160 0
15 -159 -160 0
-15 -159 160 0
15 159 160 0
-23 -160 0
15 -161 -162 0
-15 161 -162 0
162 -15 -161 0
162 15 161 0
-25 162 0
-163 164 0
-159 164 0
163 159 -164 0
15 -164 -165 0
-15 164 -165 0
-15 -164 165 0
15 164 165 0
-26 165 0
163 166 0
159 166 0
-163 -159 -166 0
-15 166 -167 0
15 -166 -167 0
167 -166 -15 0
15 166 167 0
-27 -167 0
-163 161 -168 0
163 -161 -168 0
-163 -161 168 0
163 161 168 0
-23 -168 0
163 -169 -170 0
-163 169 -170 0
170 -163 -169 0
170 163 169 0
-25 170 0
-171 172 0
-161 172 0
171 161 -172 0
163 -172 -173 0
-163 172 -173 0
-163 -172 173 0
163 172 173 0
-26 173 0
171 174 0
161 174 0
-171 -161 -174 0
-163 174 -175 0
163 -174 -175 0
175 -174 -163 0
163 174 175 0
-27 -175 0
-171 169 -176 0
171 -169 -176 0
-171 -169 176 0
171 169 176 0
-23 -176 0
171 -177 -178 0
-171 177 -178 0
178 -171 -177 0
178 171 177 0
-25 178 0
-179 180 0
-169 180 0
179 169 -180 0
171 -180 -181 0
-171 180 -181 0
-171 -180 181 0
171 180 181 0
-26 181 0
179 182 0
169 182 0
-179 -169 -182 0
-171 182 -183 0
171 -182 -183 0
183 -182 -171 0
171 182 183 0
-27 -183 0
-179 177 -184 0
179 -177 -184 0
-179 -177 184 0
179 177 184 0
-23 -184 0
179 -185 -186 0
-179 185 -186 0
186 -179 -185 0
186 179 185 0
-25 186 0
-187 188 0
-177 188 0
187 177 -188 0
179 -188 -189 0
-179 188 -189 0
-179 -188 189 0
179 188 189 0
-26 189 0
187 190 0
177 190 0
-187 -177 -190 0
-179 190 -191 0
179 -190 -191 0
191 -190 -179 0
179 190 191 0
-27 -191 0
-187 185 -192 0
187 -185 -192 0
-187 -185 192 0
187 185 192 0
-23 -192 0
187 -193 -194 0
-187 193 -194 0
194 -187 -193 0
194 187 193 0
-25 194 0
-195 196 0
-185 196 0
195 185 -196 0
187 -196 -197 0
-187 196 -197 0
-187 -196 197 0
187 196 197 0
-26 197 0
195 198 0
185 198 0
-195 -185 -198 0
-187 198 -199 0
187 -198 -199 0
199 -198 -187 0
187 198 199 0
-27 -199 0
-195 193 -200 0
195 -193 -200 0
-195 -193 200 0
195 193 200 0
-23 -200 0
195 -201 -202 0
-195 201 -202 0
202 -195 -201 0
202 195 201 0
-25 202 0
-203 204 0
-193 204 0
203 193 -204 0
195 -204 -205 0
-195 204 -205 0
-195 -204 205 0
195 204 205 0
-26 205 0
203 206 0
193 206 0
-203 -193 -206 0
-195 206 -207 0
195 -206 -207 0
207 -206 -195 0
195 206 207 0
-27 -207 0
-203 201 -208 0
203 -201 -208 0
-203 -201 208 0
203 201 208 0
-23 -208 0
203 -209 -210 0
-203 209 -210 0
210 -203 -209 0
210 203 209 0
-25 210 0
-211 212 0
-201 212 0
211 201 -212 0
203 -212 -213 0
-203 212 -213 0
-203 -212 213 0
203 212 213 0
-26 213 0
211 214 0
201 214 0
-211 -201 -214 0
-203 214 -215 0
203 -214 -215 0
215 -214 -203 0
203 214 215 0
-27 -215 0
-211 209 -216 0
211 -209 -216 0
-211 -209 216 0
211 209 216 0
-23 -216 0
211 -185 -217 0
-211 185 -217 0
217 -211 -185 0
217 211 185 0
-25 217 0
-185 218 0
-193 218 0
-201 218 0
-209 218 0
185 193 201 209 -218 0
211 -218 -219 0
-211 218 -219 0
-211 -218 219 0
211 218 219 0
-26 219 0
185 220 0
193 220 0
201 220 0
209 220 0
-221 0
-211 220 -222 0
211 -220 -222 0
222 -220 -211 0
211 220 222 0
-27 -222 0
-16 223 -224 0
16 -223 -224 0
-16 -223 224 0
16 223 224 0
-23 -224 0
16 -225 -226 0
-16 225 -226 0
226 -16 -225 0
226 16 225 0
-25 226 0
-227 228 0
-223 228 0
227 223 -228 0
16 -228 -229 0
-16 228 -229 0
-16 -228 229 0
16 228 229 0
-26 229 0
227 230 0
223 230 0
-227 -223 -230 0
-16 230 -231 0
16 -230 -231 0
231 -230 -16 0
16 230 231 0
-27 -231 0
-227 225 -232 0
227 -225 -232 0
-227 -225 232 0
227 225 232 0
-23 -232 0
227 -233 -234 0
-227 233 -234 0
234 -227 -233 0
234 227 233 0
-25 234 0
-235 236 0
-225 236 0
235 225 -236 0
227 -236 -237 0
-227 236 -237 0
-227 -236 237 0
227 236 237 0
-26 237 0
235 238 0
225 238 0
-235 -225 -238 0
-227 238 -239 0
227 -238 -239 0
239 -238 -227 0
227 238 239 0
-27 -239 0
-235 233 -240 0
235 -233 -240 0
-235 -233 240 0
235 233 240 0
-23 -240 0
235 -241 -242 0
-235 241 -242 0
242 -235 -241 0
242 235 241 0
-25 242 0
-243 244 0
-233 244 0
243 233 -244 0
235 -244 -245 0
-235 244 -245 0
-235 -244 245 0
235 244 245 0
-26 245 0
243 246 0
233 246 0
-243 -233 -246 0
-235 246 -247 0
235 -246 -247 0
247 -246 -235 0
235 246 247 0
-27 -247 0
-243 241 -248 0
243 -241 -248 0
-243 -241 248 0
243 241 248 0
-23 -248 0
243 -249 -250 0
-243 249 -250 0
250 -243 -249 0
250 243 249 0
-25 250 0
-251 252 0
-241 252 0
251 241 -252 0
243 -252 -253 0
-243 252 -253 0
-243 -252 253 0
243 252 253 0
-26 253 0
251 254 0
241 254 0
-251 -241 -254 0
-243 254 -255 0
243 -254 -255 0
255 -254 -243 0
243 254 255 0
-27 -255 0
-251 249 -256 0
251 -249 -256 0
-251 -249 256 0
251 249 256 0
-23 -256 0
251 -257 -258 0
-251 257 -258 0
258 -251 -257 0
258 251 257 0
-25 258 0
-259 260 0
-249 260 0
259 249 -260 0
251 -260 -261 0
-251 260 -261 0
-251 -260 261 0
251 260 261 0
-26 261 0
259 262 0
249 262 0
-259 -249 -262 0
-251 262 -263 0
251 -262 -263 0
263 -262 -251 0
251 262 263 0
-27 -263 0
-259 257 -264 0
259 -257 -264 0
-259 -257 264 0
259 257 264 0
-23 -264 0
259 -233 -265 0
-259 233 -265 0
265 -259 -233 0
265 259 233 0
-25 265 0
-233 266 0
-241 266 0
-249 266 0
-257 266 0
233 241 249 257 -266 0
259 -266 -267 0
-259 266 -267 0
-259 -266 267 0
259 266 267 0
-26 267 0
233 268 0
241 268 0
249 268 0
257 268 0
-269 0
-259 268 -270 0
259 -268 -270 0
270 -268 -259 0
259 268 270 0
-27 -270 0
-17 271 -272 0
17 -271 -272 0
-17 -271 272 0
17 271 272 0
-23 -272 0
17 -273 -274 0
-17 273 -274 0
274 -17 -273 0
274 17 273 0
-25 274 0
-275 276 0
-271 276 0
275 271 -276 0
17 -276 -277 0
-17 276 -277 0
-17 -276 277 0
17 276 277 0
-26 277 0
275 278 0
271 278 0
-275 -271 -278 0
-17 278 -279 0
17 -278 -279 0
279 -278 -17 0
17 278 279 0
-27 -279 0
-275 273 -280 0
275 -273 -280 0
-275 -273 280 0
275 273 280 0
-23 -280 0
275 -281 -282 0
-275 281 -282 0
282 -275 -281 0
282 275 281 0
-25 282 0
-283 284 0
-273 284 0
283 273 -284 0
275 -284 -285 0
-275 284 -285 0
-275 -284 285 0
275 284 285 0
-26 285 0
283 286 0
273 286 0
-283 -273 -286 0
-275 286 -287 0
275 -286 -287 0
287 -286 -275 0
275 286 287 0
-27 -287 0
-283 281 -288 0
283 -281 -288 0
-283 -281 288 0
283 281 288 0
-23 -288 0
283 -289 -290 0
-283 289 -290 0
290 -283 -289 0
290 283 289 0
-25 290 0
-291 292 0
-281 292 0
291 281 -292 0
283 -292 -293 0
-283 292 -293 0
-283 -292 293 0
283 292 293 0
-26 293 0
291 294 0
281 294 0
-291 -281 -294 0
-283 294 -295 0
283 -294 -295 0
295 -294 -283 0
283 294 295 0
-27 -295 0
-291 289 -296 0
291 -289 -296 0
-291 -289 296 0
291 289 296 0
-23 -296 0
291 -297 -298 0
-291 297 -298 0
298 -291 -297 0
298 291 297 0
-25 298 0
-299 300 0
-289 300 0
299 289 -300 0
291 -300 -301 0
-291 300 -301 0
-291 -300 301 0
291 300 301 0
-26 301 0
299 302 0
289 302 0
-299 -289 -302 0
-291 302 -303 0
291 -302 -303 0
303 -302 -291 0
291 302 303 0
-27 -303 0
-299 297 -304 0
299 -297 -304 0
-299 -297 304 0
299 297 304 0
-23 -304 0
299 -305 -306 0
-299 305 -306 0
306 -299 -305 0
306 299 305 0
-25 306 0
-307 308 0
-297 308 0
307 297 -308 0
299 -308 -309 0
-299 308 -309 0
-299 -308 309 0
299 308 309 0
-26 309 0
307 310 0
297 310 0
-307 -297 -310 0
-299 310 -311 0
299 -310 -311 0
311 -310 -299 0
299 310 311 0
-27 -311 0
-307 305 -312 0
307 -305 -312 0
-307 -305 312 0
307 305 312 0
-23 -312 0
307 -313 -314 0
-307 313 -314 0
314 -307 -313 0
314 307 313 0
-25 314 0
-315 316 0
-305 316 0
315 305 -316 0
307 -316 -317 0
-307 316 -317 0
-307 -316 317 0
307 316 317 0
-26 317 0
315 318 0
305 318 0
-315 -305 -318 0
-307 318 -319 0
307 -318 -319 0
319 -318 -307 0
307 318 319 0
-27 -319 0
-315 313 -320 0
315 -313 -320 0
-315 -313 320 0
315 313 320 0
-23 -320 0
315 -289 -321 0
-315 289 -321 0
321 -315 -289 0
321 315 289 0
-25 321 0
-289 322 0
-297 322 0
-305 322 0
-313 322 0
289 297 305 313 -322 0
315 -322 -323 0
-315 322 -323 0
-315 -322 323 0
315 322 323 0
-26 323 0
289 324 0
297 324 0
305 324 0
313 324 0
-325 0
-315 324 -326 0
315 -324 -326 0
326 -324 -315 0
315 324 326 0
-27 -326 0
-18 327 -328 0
18 -327 -328 0
-18 -327 328 0
18 327 328 0
-23 -328 0
18 -329 -330 0
-18 329 -330 0
330 -18 -329 0
330 18 329 0
-25 330 0
-331 332 0
-327 332 0
331 327 -332 0
18 -332 -333 0
-18 332 -333 0
-18 -332 333 0
18 332 333 0
-26 333 0
331 334 0
327 334 0
-331 -327 -334 0
-18 334 -335 0
18 -334 -335 0
335 -334 -18 0
18 334 335 0
-27 -335 0
-331 329 -336 0
331 -329 -336 0
-331 -329 336 0
331 329 336 0
-23 -336 0
331 -329 -337 0
-331 329 -337 0
337 -331 -329 0
337 331 329 0
-25 337 0
-26 337 0
-27 337 0
-19 338 -339 0
19 -338 -339 0
-19 -338 339 0
19 338 339 0
-23 -339 0
19 -340 -341 0
-19 340 -341 0
341 -19 -340 0
341 19 340 0
-25 341 0
-342 343 0
-338 343 0
342 338 -343 0
19 -343 -344 0
-19 343 -344 0
-19 -343 344 0
19 343 344 0
-26 344 0
342 345 0
338 345 0
-342 -338 -345 0
-19 345 -346 0
19 -345 -346 0
346 -345 -19 0
19 345 346 0
-27 -346 0
-342 340 -347 0
342 -340 -347 0
-342 -340 347 0
342 340 347 0
-23 -347 0
342 -348 -349 0
-342 348 -349 0
349 -342 -348 0
349 342 348 0
-25 349 0
-350 351 0
-340 351 0
350 340 -351 0
342 -351 -352 0
-342 351 -352 0
-342 -351 352 0
342 351 352 0
-26 352 0
350 353 0
340 353 0
-350 -340 -353 0
-342 353 -354 0
342 -353 -354 0
354 -353 -342 0
342 353 354 0
-27 -354 0
-350 348 -355 0
350 -348 -355 0
-350 -348 355 0
350 348 355 0
-23 -355 0
350 -356 -357 0
-350 356 -357 0
357 -350 -356 0
357 350 356 0
-25 357 0
-358 359 0
-348 359 0
358 348 -359 0
350 -359 -360 0
-350 359 -360 0
-350 -359 360 0
350 359 360 0
-26 360 0
358 361 0
348 361 0
-358 -348 -361 0
-350 361 -362 0
350 -361 -362 0
362 -361 -350 0
350 361 362 0
-27 -362 0
-358 356 -363 0
358 -356 -363 0
-358 -356 363 0
358 356 363 0
-23 -363 0
358 -364 -365 0
-358 364 -365 0
365 -358 -364 0
365 358 364 0
-25 365 0
-366 367 0
-356 367 0
366 356 -367 0
358 -367 -368 0
-358 367 -368 0
-358 -367 368 0
358 367 368 0
-26 368 0
366 369 0
356 369 0
-366 -356 -369 0
-358 369 -370 0
358 -369 -370 0
370 -369 -358 0
358 369 370 0
-27 -370 0
-366 364 -371 0
366 -364 -371 0
-366 -364 371 0
366 364 371 0
-23 -371 0
366 -372 -373 0
-366 372 -373 0
373 -366 -372 0
373 366 372 0
-25 373 0
-374 375 0
-364 375 0
374 364 -375 0
366 -375 -376 0
-366 375 -376 0
-366 -375 376 0
366 375 376 0
-26 376 0
374 377 0
364 377 0
-374 -364 -377 0
-366 377 -378 0
366 -377 -378 0
378 -377 -366 0
366 377 378 0
-27 -378 0
-374 372 -379 0
374 -372 -379 0
-374 -372 379 0
374 372 379 0
-23 -379 0
374 -380 -381 0
-374 380 -381 0
381 -374 -380 0
381 374 380 0
-25 381 0
-382 383 0
-372 383 0
382 372 -383 0
374 -383 -384 0
-374 383 -384 0
-374 -383 384 0
374 383 384 0
-26 384 0
382 385 0
372 385 0
-382 -372 -385 0
-374 385 -386 0
374 -385 -386 0
386 -385 -374 0
374 385 386 0
-27 -386 0
-382 380 -387 0
382 -380 -387 0
-382 -380 387 0
382 380 387 0
-23 -387 0
382 -356 -388 0
-382 356 -388 0
388 -382 -356 0
388 382 356 0
-25 388 0
-356 389 0
-364 389 0
-372 389 0
-380 389 0
356 364 372 380 -389 0
382 -389 -390 0
-382 389 -390 0
-382 -389 390 0
382 389 390 0
-26 390 0
356 391 0
364 391 0
372 391 0
380 391 0
-392 0
-382 391 -393 0
382 -391 -393 0
393 -391 -382 0
382 391 393 0
-27 -393 0
-20 394 -395 0
20 -394 -395 0
-20 -394 395 0
20 394 395 0
-23 -395 0
20 -396 -397 0
-20 396 -397 0
397 -20 -396 0
397 20 396 0
-25 397 0
-398 399 0
-394 399 0
398 394 -399 0
20 -399 -400 0
-20 399 -400 0
-20 -399 400 0
20 399 400 0
-26 400 0
398 401 0
394 401 0
-398 -394 -401 0
-20 401 -402 0
20 -401 -402 0
402 -401 -20 0
20 401 402 0
-27 -402 0
-398 396 -403 0
398 -396 -403 0
-398 -396 403 0
398 396 403 0
-23 -403 0
398 -404 -405 0
-398 404 -405 0
405 -398 -404 0
405 398 404 0
-25 405 0
-406 407 0
-396 407 0
406 396 -407 0
398 -407 -408 0
-398 407 -408 0
-398 -407 408 0
398 407 408 0
-26 408 0
406 409 0
396 409 0
-406 -396 -409 0
-398 409 -410 0
398 -409 -410 0
410 -409 -398 0
398 409 410 0
-27 -410 0
-406 404 -411 0
406 -404 -411 0
-406 -404 411 0
406 404 411 0
-23 -411 0
406 -412 -413 0
-406 412 -413 0
413 -406 -412 0
413 406 412 0
-25 413 0
-414 415 0
-404 415 0
414 404 -415 0
406 -415 -416 0
-406 415 -416 0
-406 -415 416 0
406 415 416 0
-26 416 0
414 417 0
404 417 0
-414 -404 -417 0
-406 417 -418 0
406 -417 -418 0
418 -417 -406 0
406 417 418 0
-27 -418 0
-414 412 -419 0
414 -412 -419 0
-414 -412 419 0
414 412 419 0
-23 -419 0
414 -412 -420 0
-414 412 -420 0
420 -414 -412 0
420 414 412 0
-25 420 0
-26 420 0
-27 420 0
23 25 26 27 0
-23 -25 0
-23 -26 0
-23 -27 0
-25 -26 0
-25 -27 0
-26 -27 0
21 -421 0
28 -421 0
31 -421 0
34 -421 0
37 -421 0
40 -421 0
43 -421 0
46 -421 0
49 -421 0
52 -421 0
55 -421 0
-421 -57 0
65 -421 0
74 -421 0
76 -421 0
-421 -84 0
-421 -97 0
-421 -99 0
107 -421 0
115 -421 0
-421 -128 0
-421 -130 0
-421 -138 0
146 -421 0
-421 -159 0
-421 -161 0
-421 -169 0
-421 -177 0
-421 -185 0
-421 -193 0
-421 -201 0
209 -421 0
-421 -223 0
225 -421 0
-421 -233 0
-421 -241 0
249 -421 0
-421 -257 0
-421 -271 0
273 -421 0
-421 -281 0
-421 -289 0
-421 -297 0
305 -421 0
313 -421 0
327 -421 0
-421 -329 0
338 -421 0
-421 -340 0
348 -421 0
-421 -356 0
-421 -364 0
372 -421 0
-421 -380 0
394 -421 0
-421 -396 0
404 -421 0
-421 -412 0
421 0
-422 0
-423 0
-424 0
-425 0
-426 0
-427 0
-428 0
-429 0
